p cnf 90 1293
1 2 3 0
4 5 6 0
7 8 9 0
10 11 12 0
13 14 15 0
16 17 18 0
19 20 21 0
22 23 24 0
25 26 27 0
28 29 30 0
31 32 33 0
34 35 36 0
37 38 39 0
40 41 42 0
43 44 45 0
46 47 48 0
49 50 51 0
52 53 54 0
55 56 57 0
58 59 60 0
61 62 63 0
64 65 66 0
67 68 69 0
70 71 72 0
73 74 75 0
76 77 78 0
79 80 81 0
82 83 84 0
85 86 87 0
88 89 90 0
-1 -2 0
-1 -3 0
-2 -3 0
-4 -5 0
-4 -6 0
-5 -6 0
-7 -8 0
-7 -9 0
-8 -9 0
-10 -11 0
-10 -12 0
-11 -12 0
-13 -14 0
-13 -15 0
-14 -15 0
-16 -17 0
-16 -18 0
-17 -18 0
-19 -20 0
-19 -21 0
-20 -21 0
-22 -23 0
-22 -24 0
-23 -24 0
-25 -26 0
-25 -27 0
-26 -27 0
-28 -29 0
-28 -30 0
-29 -30 0
-31 -32 0
-31 -33 0
-32 -33 0
-34 -35 0
-34 -36 0
-35 -36 0
-37 -38 0
-37 -39 0
-38 -39 0
-40 -41 0
-40 -42 0
-41 -42 0
-43 -44 0
-43 -45 0
-44 -45 0
-46 -47 0
-46 -48 0
-47 -48 0
-49 -50 0
-49 -51 0
-50 -51 0
-52 -53 0
-52 -54 0
-53 -54 0
-55 -56 0
-55 -57 0
-56 -57 0
-58 -59 0
-58 -60 0
-59 -60 0
-61 -62 0
-61 -63 0
-62 -63 0
-64 -65 0
-64 -66 0
-65 -66 0
-67 -68 0
-67 -69 0
-68 -69 0
-70 -71 0
-70 -72 0
-71 -72 0
-73 -74 0
-73 -75 0
-74 -75 0
-76 -77 0
-76 -78 0
-77 -78 0
-79 -80 0
-79 -81 0
-80 -81 0
-82 -83 0
-82 -84 0
-83 -84 0
-85 -86 0
-85 -87 0
-86 -87 0
-88 -89 0
-88 -90 0
-89 -90 0
-1 -4 0
-2 -5 0
-3 -6 0
-1 -7 0
-2 -8 0
-3 -9 0
-1 -10 0
-2 -11 0
-3 -12 0
-1 -13 0
-2 -14 0
-3 -15 0
-1 -19 0
-2 -20 0
-3 -21 0
-1 -22 0
-2 -23 0
-3 -24 0
-1 -28 0
-2 -29 0
-3 -30 0
-1 -31 0
-2 -32 0
-3 -33 0
-1 -34 0
-2 -35 0
-3 -36 0
-1 -37 0
-2 -38 0
-3 -39 0
-1 -40 0
-2 -41 0
-3 -42 0
-1 -49 0
-2 -50 0
-3 -51 0
-1 -52 0
-2 -53 0
-3 -54 0
-1 -55 0
-2 -56 0
-3 -57 0
-1 -58 0
-2 -59 0
-3 -60 0
-1 -61 0
-2 -62 0
-3 -63 0
-1 -64 0
-2 -65 0
-3 -66 0
-1 -70 0
-2 -71 0
-3 -72 0
-1 -73 0
-2 -74 0
-3 -75 0
-1 -76 0
-2 -77 0
-3 -78 0
-1 -79 0
-2 -80 0
-3 -81 0
-1 -82 0
-2 -83 0
-3 -84 0
-1 -85 0
-2 -86 0
-3 -87 0
-1 -88 0
-2 -89 0
-3 -90 0
-4 -7 0
-5 -8 0
-6 -9 0
-4 -10 0
-5 -11 0
-6 -12 0
-4 -16 0
-5 -17 0
-6 -18 0
-4 -19 0
-5 -20 0
-6 -21 0
-4 -25 0
-5 -26 0
-6 -27 0
-4 -28 0
-5 -29 0
-6 -30 0
-4 -31 0
-5 -32 0
-6 -33 0
-4 -34 0
-5 -35 0
-6 -36 0
-4 -37 0
-5 -38 0
-6 -39 0
-4 -40 0
-5 -41 0
-6 -42 0
-4 -43 0
-5 -44 0
-6 -45 0
-4 -46 0
-5 -47 0
-6 -48 0
-4 -49 0
-5 -50 0
-6 -51 0
-4 -52 0
-5 -53 0
-6 -54 0
-4 -55 0
-5 -56 0
-6 -57 0
-4 -58 0
-5 -59 0
-6 -60 0
-4 -61 0
-5 -62 0
-6 -63 0
-4 -64 0
-5 -65 0
-6 -66 0
-4 -67 0
-5 -68 0
-6 -69 0
-4 -70 0
-5 -71 0
-6 -72 0
-4 -73 0
-5 -74 0
-6 -75 0
-4 -76 0
-5 -77 0
-6 -78 0
-4 -79 0
-5 -80 0
-6 -81 0
-4 -82 0
-5 -83 0
-6 -84 0
-4 -85 0
-5 -86 0
-6 -87 0
-4 -88 0
-5 -89 0
-6 -90 0
-7 -10 0
-8 -11 0
-9 -12 0
-7 -13 0
-8 -14 0
-9 -15 0
-7 -16 0
-8 -17 0
-9 -18 0
-7 -19 0
-8 -20 0
-9 -21 0
-7 -22 0
-8 -23 0
-9 -24 0
-7 -25 0
-8 -26 0
-9 -27 0
-7 -28 0
-8 -29 0
-9 -30 0
-7 -31 0
-8 -32 0
-9 -33 0
-7 -37 0
-8 -38 0
-9 -39 0
-7 -40 0
-8 -41 0
-9 -42 0
-7 -43 0
-8 -44 0
-9 -45 0
-7 -46 0
-8 -47 0
-9 -48 0
-7 -49 0
-8 -50 0
-9 -51 0
-7 -52 0
-8 -53 0
-9 -54 0
-7 -55 0
-8 -56 0
-9 -57 0
-7 -58 0
-8 -59 0
-9 -60 0
-7 -61 0
-8 -62 0
-9 -63 0
-7 -64 0
-8 -65 0
-9 -66 0
-7 -67 0
-8 -68 0
-9 -69 0
-7 -70 0
-8 -71 0
-9 -72 0
-7 -76 0
-8 -77 0
-9 -78 0
-7 -79 0
-8 -80 0
-9 -81 0
-7 -85 0
-8 -86 0
-9 -87 0
-7 -88 0
-8 -89 0
-9 -90 0
-10 -13 0
-11 -14 0
-12 -15 0
-10 -16 0
-11 -17 0
-12 -18 0
-10 -25 0
-11 -26 0
-12 -27 0
-10 -28 0
-11 -29 0
-12 -30 0
-10 -31 0
-11 -32 0
-12 -33 0
-10 -34 0
-11 -35 0
-12 -36 0
-10 -37 0
-11 -38 0
-12 -39 0
-10 -40 0
-11 -41 0
-12 -42 0
-10 -43 0
-11 -44 0
-12 -45 0
-10 -46 0
-11 -47 0
-12 -48 0
-10 -52 0
-11 -53 0
-12 -54 0
-10 -55 0
-11 -56 0
-12 -57 0
-10 -58 0
-11 -59 0
-12 -60 0
-10 -61 0
-11 -62 0
-12 -63 0
-10 -64 0
-11 -65 0
-12 -66 0
-10 -67 0
-11 -68 0
-12 -69 0
-10 -70 0
-11 -71 0
-12 -72 0
-10 -73 0
-11 -74 0
-12 -75 0
-10 -76 0
-11 -77 0
-12 -78 0
-10 -79 0
-11 -80 0
-12 -81 0
-10 -82 0
-11 -83 0
-12 -84 0
-10 -85 0
-11 -86 0
-12 -87 0
-10 -88 0
-11 -89 0
-12 -90 0
-13 -16 0
-14 -17 0
-15 -18 0
-13 -19 0
-14 -20 0
-15 -21 0
-13 -25 0
-14 -26 0
-15 -27 0
-13 -28 0
-14 -29 0
-15 -30 0
-13 -31 0
-14 -32 0
-15 -33 0
-13 -34 0
-14 -35 0
-15 -36 0
-13 -37 0
-14 -38 0
-15 -39 0
-13 -40 0
-14 -41 0
-15 -42 0
-13 -43 0
-14 -44 0
-15 -45 0
-13 -46 0
-14 -47 0
-15 -48 0
-13 -52 0
-14 -53 0
-15 -54 0
-13 -58 0
-14 -59 0
-15 -60 0
-13 -61 0
-14 -62 0
-15 -63 0
-13 -64 0
-14 -65 0
-15 -66 0
-13 -70 0
-14 -71 0
-15 -72 0
-13 -73 0
-14 -74 0
-15 -75 0
-13 -76 0
-14 -77 0
-15 -78 0
-13 -79 0
-14 -80 0
-15 -81 0
-13 -82 0
-14 -83 0
-15 -84 0
-13 -85 0
-14 -86 0
-15 -87 0
-16 -19 0
-17 -20 0
-18 -21 0
-16 -25 0
-17 -26 0
-18 -27 0
-16 -28 0
-17 -29 0
-18 -30 0
-16 -31 0
-17 -32 0
-18 -33 0
-16 -34 0
-17 -35 0
-18 -36 0
-16 -37 0
-17 -38 0
-18 -39 0
-16 -40 0
-17 -41 0
-18 -42 0
-16 -43 0
-17 -44 0
-18 -45 0
-16 -46 0
-17 -47 0
-18 -48 0
-16 -49 0
-17 -50 0
-18 -51 0
-16 -52 0
-17 -53 0
-18 -54 0
-16 -55 0
-17 -56 0
-18 -57 0
-16 -58 0
-17 -59 0
-18 -60 0
-16 -61 0
-17 -62 0
-18 -63 0
-16 -64 0
-17 -65 0
-18 -66 0
-16 -67 0
-17 -68 0
-18 -69 0
-16 -70 0
-17 -71 0
-18 -72 0
-16 -73 0
-17 -74 0
-18 -75 0
-16 -76 0
-17 -77 0
-18 -78 0
-16 -85 0
-17 -86 0
-18 -87 0
-16 -88 0
-17 -89 0
-18 -90 0
-19 -22 0
-20 -23 0
-21 -24 0
-19 -25 0
-20 -26 0
-21 -27 0
-19 -28 0
-20 -29 0
-21 -30 0
-19 -31 0
-20 -32 0
-21 -33 0
-19 -34 0
-20 -35 0
-21 -36 0
-19 -37 0
-20 -38 0
-21 -39 0
-19 -40 0
-20 -41 0
-21 -42 0
-19 -43 0
-20 -44 0
-21 -45 0
-19 -46 0
-20 -47 0
-21 -48 0
-19 -49 0
-20 -50 0
-21 -51 0
-19 -52 0
-20 -53 0
-21 -54 0
-19 -55 0
-20 -56 0
-21 -57 0
-19 -58 0
-20 -59 0
-21 -60 0
-19 -61 0
-20 -62 0
-21 -63 0
-19 -64 0
-20 -65 0
-21 -66 0
-19 -67 0
-20 -68 0
-21 -69 0
-19 -70 0
-20 -71 0
-21 -72 0
-19 -76 0
-20 -77 0
-21 -78 0
-19 -79 0
-20 -80 0
-21 -81 0
-19 -82 0
-20 -83 0
-21 -84 0
-19 -85 0
-20 -86 0
-21 -87 0
-19 -88 0
-20 -89 0
-21 -90 0
-22 -25 0
-23 -26 0
-24 -27 0
-22 -28 0
-23 -29 0
-24 -30 0
-22 -31 0
-23 -32 0
-24 -33 0
-22 -34 0
-23 -35 0
-24 -36 0
-22 -37 0
-23 -38 0
-24 -39 0
-22 -40 0
-23 -41 0
-24 -42 0
-22 -43 0
-23 -44 0
-24 -45 0
-22 -46 0
-23 -47 0
-24 -48 0
-22 -49 0
-23 -50 0
-24 -51 0
-22 -52 0
-23 -53 0
-24 -54 0
-22 -55 0
-23 -56 0
-24 -57 0
-22 -58 0
-23 -59 0
-24 -60 0
-22 -61 0
-23 -62 0
-24 -63 0
-22 -67 0
-23 -68 0
-24 -69 0
-22 -70 0
-23 -71 0
-24 -72 0
-22 -73 0
-23 -74 0
-24 -75 0
-22 -76 0
-23 -77 0
-24 -78 0
-22 -79 0
-23 -80 0
-24 -81 0
-22 -82 0
-23 -83 0
-24 -84 0
-22 -85 0
-23 -86 0
-24 -87 0
-22 -88 0
-23 -89 0
-24 -90 0
-25 -28 0
-26 -29 0
-27 -30 0
-25 -34 0
-26 -35 0
-27 -36 0
-25 -37 0
-26 -38 0
-27 -39 0
-25 -40 0
-26 -41 0
-27 -42 0
-25 -43 0
-26 -44 0
-27 -45 0
-25 -46 0
-26 -47 0
-27 -48 0
-25 -49 0
-26 -50 0
-27 -51 0
-25 -52 0
-26 -53 0
-27 -54 0
-25 -55 0
-26 -56 0
-27 -57 0
-25 -58 0
-26 -59 0
-27 -60 0
-25 -61 0
-26 -62 0
-27 -63 0
-25 -64 0
-26 -65 0
-27 -66 0
-25 -67 0
-26 -68 0
-27 -69 0
-25 -70 0
-26 -71 0
-27 -72 0
-25 -73 0
-26 -74 0
-27 -75 0
-25 -76 0
-26 -77 0
-27 -78 0
-25 -79 0
-26 -80 0
-27 -81 0
-25 -82 0
-26 -83 0
-27 -84 0
-25 -85 0
-26 -86 0
-27 -87 0
-25 -88 0
-26 -89 0
-27 -90 0
-28 -31 0
-29 -32 0
-30 -33 0
-28 -34 0
-29 -35 0
-30 -36 0
-28 -37 0
-29 -38 0
-30 -39 0
-28 -40 0
-29 -41 0
-30 -42 0
-28 -46 0
-29 -47 0
-30 -48 0
-28 -49 0
-29 -50 0
-30 -51 0
-28 -52 0
-29 -53 0
-30 -54 0
-28 -58 0
-29 -59 0
-30 -60 0
-28 -61 0
-29 -62 0
-30 -63 0
-28 -64 0
-29 -65 0
-30 -66 0
-28 -70 0
-29 -71 0
-30 -72 0
-28 -73 0
-29 -74 0
-30 -75 0
-28 -76 0
-29 -77 0
-30 -78 0
-28 -79 0
-29 -80 0
-30 -81 0
-31 -34 0
-32 -35 0
-33 -36 0
-31 -37 0
-32 -38 0
-33 -39 0
-31 -40 0
-32 -41 0
-33 -42 0
-31 -43 0
-32 -44 0
-33 -45 0
-31 -46 0
-32 -47 0
-33 -48 0
-31 -49 0
-32 -50 0
-33 -51 0
-31 -52 0
-32 -53 0
-33 -54 0
-31 -55 0
-32 -56 0
-33 -57 0
-31 -58 0
-32 -59 0
-33 -60 0
-31 -67 0
-32 -68 0
-33 -69 0
-31 -70 0
-32 -71 0
-33 -72 0
-31 -73 0
-32 -74 0
-33 -75 0
-31 -76 0
-32 -77 0
-33 -78 0
-31 -79 0
-32 -80 0
-33 -81 0
-31 -82 0
-32 -83 0
-33 -84 0
-31 -85 0
-32 -86 0
-33 -87 0
-31 -88 0
-32 -89 0
-33 -90 0
-34 -37 0
-35 -38 0
-36 -39 0
-34 -40 0
-35 -41 0
-36 -42 0
-34 -43 0
-35 -44 0
-36 -45 0
-34 -46 0
-35 -47 0
-36 -48 0
-34 -49 0
-35 -50 0
-36 -51 0
-34 -52 0
-35 -53 0
-36 -54 0
-34 -55 0
-35 -56 0
-36 -57 0
-34 -61 0
-35 -62 0
-36 -63 0
-34 -64 0
-35 -65 0
-36 -66 0
-34 -67 0
-35 -68 0
-36 -69 0
-34 -70 0
-35 -71 0
-36 -72 0
-34 -73 0
-35 -74 0
-36 -75 0
-34 -76 0
-35 -77 0
-36 -78 0
-34 -82 0
-35 -83 0
-36 -84 0
-34 -85 0
-35 -86 0
-36 -87 0
-34 -88 0
-35 -89 0
-36 -90 0
-37 -40 0
-38 -41 0
-39 -42 0
-37 -43 0
-38 -44 0
-39 -45 0
-37 -46 0
-38 -47 0
-39 -48 0
-37 -49 0
-38 -50 0
-39 -51 0
-37 -52 0
-38 -53 0
-39 -54 0
-37 -55 0
-38 -56 0
-39 -57 0
-37 -58 0
-38 -59 0
-39 -60 0
-37 -61 0
-38 -62 0
-39 -63 0
-37 -64 0
-38 -65 0
-39 -66 0
-37 -67 0
-38 -68 0
-39 -69 0
-37 -70 0
-38 -71 0
-39 -72 0
-37 -73 0
-38 -74 0
-39 -75 0
-37 -76 0
-38 -77 0
-39 -78 0
-37 -79 0
-38 -80 0
-39 -81 0
-37 -82 0
-38 -83 0
-39 -84 0
-37 -85 0
-38 -86 0
-39 -87 0
-37 -88 0
-38 -89 0
-39 -90 0
-40 -43 0
-41 -44 0
-42 -45 0
-40 -46 0
-41 -47 0
-42 -48 0
-40 -49 0
-41 -50 0
-42 -51 0
-40 -52 0
-41 -53 0
-42 -54 0
-40 -55 0
-41 -56 0
-42 -57 0
-40 -61 0
-41 -62 0
-42 -63 0
-40 -64 0
-41 -65 0
-42 -66 0
-40 -67 0
-41 -68 0
-42 -69 0
-40 -70 0
-41 -71 0
-42 -72 0
-40 -73 0
-41 -74 0
-42 -75 0
-40 -76 0
-41 -77 0
-42 -78 0
-40 -79 0
-41 -80 0
-42 -81 0
-40 -85 0
-41 -86 0
-42 -87 0
-40 -88 0
-41 -89 0
-42 -90 0
-43 -46 0
-44 -47 0
-45 -48 0
-43 -49 0
-44 -50 0
-45 -51 0
-43 -52 0
-44 -53 0
-45 -54 0
-43 -55 0
-44 -56 0
-45 -57 0
-43 -58 0
-44 -59 0
-45 -60 0
-43 -61 0
-44 -62 0
-45 -63 0
-43 -64 0
-44 -65 0
-45 -66 0
-43 -67 0
-44 -68 0
-45 -69 0
-43 -70 0
-44 -71 0
-45 -72 0
-43 -73 0
-44 -74 0
-45 -75 0
-43 -76 0
-44 -77 0
-45 -78 0
-43 -79 0
-44 -80 0
-45 -81 0
-43 -82 0
-44 -83 0
-45 -84 0
-43 -85 0
-44 -86 0
-45 -87 0
-46 -49 0
-47 -50 0
-48 -51 0
-46 -55 0
-47 -56 0
-48 -57 0
-46 -58 0
-47 -59 0
-48 -60 0
-46 -61 0
-47 -62 0
-48 -63 0
-46 -64 0
-47 -65 0
-48 -66 0
-46 -67 0
-47 -68 0
-48 -69 0
-46 -70 0
-47 -71 0
-48 -72 0
-46 -73 0
-47 -74 0
-48 -75 0
-46 -76 0
-47 -77 0
-48 -78 0
-46 -79 0
-47 -80 0
-48 -81 0
-46 -82 0
-47 -83 0
-48 -84 0
-46 -85 0
-47 -86 0
-48 -87 0
-46 -88 0
-47 -89 0
-48 -90 0
-49 -52 0
-50 -53 0
-51 -54 0
-49 -55 0
-50 -56 0
-51 -57 0
-49 -58 0
-50 -59 0
-51 -60 0
-49 -61 0
-50 -62 0
-51 -63 0
-49 -64 0
-50 -65 0
-51 -66 0
-49 -67 0
-50 -68 0
-51 -69 0
-49 -70 0
-50 -71 0
-51 -72 0
-49 -73 0
-50 -74 0
-51 -75 0
-49 -76 0
-50 -77 0
-51 -78 0
-49 -79 0
-50 -80 0
-51 -81 0
-49 -82 0
-50 -83 0
-51 -84 0
-49 -85 0
-50 -86 0
-51 -87 0
-49 -88 0
-50 -89 0
-51 -90 0
-52 -55 0
-53 -56 0
-54 -57 0
-52 -58 0
-53 -59 0
-54 -60 0
-52 -61 0
-53 -62 0
-54 -63 0
-52 -64 0
-53 -65 0
-54 -66 0
-52 -67 0
-53 -68 0
-54 -69 0
-52 -70 0
-53 -71 0
-54 -72 0
-52 -73 0
-53 -74 0
-54 -75 0
-52 -76 0
-53 -77 0
-54 -78 0
-52 -79 0
-53 -80 0
-54 -81 0
-52 -85 0
-53 -86 0
-54 -87 0
-52 -88 0
-53 -89 0
-54 -90 0
-55 -58 0
-56 -59 0
-57 -60 0
-55 -61 0
-56 -62 0
-57 -63 0
-55 -64 0
-56 -65 0
-57 -66 0
-55 -67 0
-56 -68 0
-57 -69 0
-55 -70 0
-56 -71 0
-57 -72 0
-55 -73 0
-56 -74 0
-57 -75 0
-55 -76 0
-56 -77 0
-57 -78 0
-55 -79 0
-56 -80 0
-57 -81 0
-55 -85 0
-56 -86 0
-57 -87 0
-55 -88 0
-56 -89 0
-57 -90 0
-58 -64 0
-59 -65 0
-60 -66 0
-58 -67 0
-59 -68 0
-60 -69 0
-58 -70 0
-59 -71 0
-60 -72 0
-58 -76 0
-59 -77 0
-60 -78 0
-58 -79 0
-59 -80 0
-60 -81 0
-58 -82 0
-59 -83 0
-60 -84 0
-58 -85 0
-59 -86 0
-60 -87 0
-61 -64 0
-62 -65 0
-63 -66 0
-61 -67 0
-62 -68 0
-63 -69 0
-61 -70 0
-62 -71 0
-63 -72 0
-61 -73 0
-62 -74 0
-63 -75 0
-61 -76 0
-62 -77 0
-63 -78 0
-61 -79 0
-62 -80 0
-63 -81 0
-61 -82 0
-62 -83 0
-63 -84 0
-61 -85 0
-62 -86 0
-63 -87 0
-61 -88 0
-62 -89 0
-63 -90 0
-64 -67 0
-65 -68 0
-66 -69 0
-64 -70 0
-65 -71 0
-66 -72 0
-64 -73 0
-65 -74 0
-66 -75 0
-64 -76 0
-65 -77 0
-66 -78 0
-64 -79 0
-65 -80 0
-66 -81 0
-64 -82 0
-65 -83 0
-66 -84 0
-64 -85 0
-65 -86 0
-66 -87 0
-64 -88 0
-65 -89 0
-66 -90 0
-67 -70 0
-68 -71 0
-69 -72 0
-67 -73 0
-68 -74 0
-69 -75 0
-67 -79 0
-68 -80 0
-69 -81 0
-67 -82 0
-68 -83 0
-69 -84 0
-67 -85 0
-68 -86 0
-69 -87 0
-67 -88 0
-68 -89 0
-69 -90 0
-70 -73 0
-71 -74 0
-72 -75 0
-70 -76 0
-71 -77 0
-72 -78 0
-70 -79 0
-71 -80 0
-72 -81 0
-70 -82 0
-71 -83 0
-72 -84 0
-70 -85 0
-71 -86 0
-72 -87 0
-70 -88 0
-71 -89 0
-72 -90 0
-73 -76 0
-74 -77 0
-75 -78 0
-73 -79 0
-74 -80 0
-75 -81 0
-73 -82 0
-74 -83 0
-75 -84 0
-73 -85 0
-74 -86 0
-75 -87 0
-73 -88 0
-74 -89 0
-75 -90 0
-76 -79 0
-77 -80 0
-78 -81 0
-76 -82 0
-77 -83 0
-78 -84 0
-76 -85 0
-77 -86 0
-78 -87 0
-76 -88 0
-77 -89 0
-78 -90 0
-79 -82 0
-80 -83 0
-81 -84 0
-79 -85 0
-80 -86 0
-81 -87 0
-79 -88 0
-80 -89 0
-81 -90 0
-82 -85 0
-83 -86 0
-84 -87 0
-82 -88 0
-83 -89 0
-84 -90 0
-85 -88 0
-86 -89 0
-87 -90 0
